(set-logic QF_S)
(set-option :strings-exp true)
(set-option :produce-models true)
(declare-fun sigmaStar_0 () String)
(declare-fun literal_4 () String)
(declare-fun x_3 () String)
(declare-fun literal_2 () String)
(declare-fun literal_1 () String)
(declare-fun x_5 () String)
(declare-fun literal_6 () String)
(declare-fun x_7 () String)
(declare-fun x_8 () String)
(declare-fun literal_9 () String)
(declare-fun x_10 () String)
(assert (= literal_4 "\x3c\x6f\x70\x74\x69\x6f\x6e\x20\x76\x61\x6c\x75\x65\x3d\x27\x30\x27"))
(assert (= literal_2 "\x20\x73\x65\x6c\x65\x63\x74\x65\x64"))
(assert (= literal_1 ""))
(assert (or (= x_3 literal_2) (= x_3 literal_1)))
(assert (= x_5 (str.++ literal_4 x_3)))
(assert (= literal_6 "\x3e"))
(assert (= x_7 (str.++ x_5 literal_6)))
(assert (= x_8 (str.++ x_7 sigmaStar_0)))
(assert (= literal_9 "\x3c\x2f\x6f\x70\x74\x69\x6f\x6e\x3e\x5c\x6e"))
(assert (= x_10 (str.++ x_8 literal_9)))
(assert (str.in.re x_10 (re.++ (re.* re.allchar) (re.++ (str.to.re "\x5c\x3c\x53\x43\x52\x49\x50\x54") (re.* re.allchar)))))
(check-sat)
(get-model)
